(set-logic UFDT)
(declare-datatypes ((nat 0)) (((zero) (s (s0 nat)))))
(declare-fun add (nat nat) nat)
(declare-fun leq (nat nat) Bool)
(assert (forall ((y nat)) (= (add zero y) y)))
(assert (forall ((x nat) (y nat)) (= (add (s x) y) (s (add x y)))))
(assert (forall ((y nat)) (leq zero y)))
(assert (forall ((x nat)) (not (leq (s x) zero))))
(assert (forall ((x nat) (y nat)) (= (leq (s x) (s y)) (leq x y))))
(assert (not (forall ((v0 nat) (v1 nat) (v2 nat) (v3 nat) (v4 nat) (v5 nat) (v6 nat) (v7 nat) (v8 nat)) (= (s (s (add (s (add (s (add (s v8) (add (add v3 (add (s (s v7)) (s v1))) v3))) (s (add (add (s v6) (add (add (s v2) (s v0)) v5)) (s (s v4)))))) (add v1 (s v1))))) (s (add (add v1 (add (add (s (add (s (add v4 (s (s v1)))) (add (add v7 (add (add (s v5) v0) (s v6))) (s (s (s (add (s (s (s (s v1)))) (s v3)))))))) v3) v8)) v2))))))
(check-sat)
